NAME: Tnm97
COMMENT: Recalculated optimal tour for Tnm97, using concorde got a tour of length 1342086.0
TYPE: TOUR
DIMENSION: 97
TOUR_SECTION:
1
77
4
7
10
13
16
19
22
25
28
31
34
37
40
43
46
49
52
55
58
93
90
87
84
81
61
64
67
70
73
2
78
5
8
11
14
17
20
23
26
29
32
35
38
41
44
47
50
53
56
59
62
65
68
71
74
3
6
76
79
9
12
15
18
21
24
27
30
82
85
88
91
94
96
97
95
92
89
86
33
36
39
42
45
48
51
54
57
60
63
83
80
66
69
72
75 
-1
EOF
